; benchmark generated from python API
(set-info :status unknown)
(declare-fun cell_1_4 () Int)
(declare-fun cell_1_7 () Int)
(declare-fun cell_1_8 () Int)
(declare-fun cell_2_1 () Int)
(declare-fun cell_2_4 () Int)
(declare-fun cell_3_2 () Int)
(declare-fun cell_3_4 () Int)
(declare-fun cell_4_6 () Int)
(declare-fun cell_4_8 () Int)
(declare-fun cell_5_2 () Int)
(declare-fun cell_5_3 () Int)
(declare-fun cell_6_6 () Int)
(declare-fun cell_6_9 () Int)
(declare-fun cell_7_5 () Int)
(declare-fun cell_7_7 () Int)
(declare-fun cell_8_3 () Int)
(declare-fun cell_8_9 () Int)
(declare-fun cell_9_1 () Int)
(declare-fun cell_9_5 () Int)
(declare-fun cell_1_1 () Int)
(declare-fun cell_3_1 () Int)
(declare-fun cell_4_1 () Int)
(declare-fun cell_5_1 () Int)
(declare-fun cell_6_1 () Int)
(declare-fun cell_7_1 () Int)
(declare-fun cell_8_1 () Int)
(declare-fun cell_1_2 () Int)
(declare-fun cell_2_2 () Int)
(declare-fun cell_4_2 () Int)
(declare-fun cell_6_2 () Int)
(declare-fun cell_7_2 () Int)
(declare-fun cell_8_2 () Int)
(declare-fun cell_9_2 () Int)
(declare-fun cell_1_3 () Int)
(declare-fun cell_2_3 () Int)
(declare-fun cell_3_3 () Int)
(declare-fun cell_4_3 () Int)
(declare-fun cell_6_3 () Int)
(declare-fun cell_7_3 () Int)
(declare-fun cell_9_3 () Int)
(declare-fun cell_4_4 () Int)
(declare-fun cell_5_4 () Int)
(declare-fun cell_6_4 () Int)
(declare-fun cell_7_4 () Int)
(declare-fun cell_8_4 () Int)
(declare-fun cell_9_4 () Int)
(declare-fun cell_1_5 () Int)
(declare-fun cell_2_5 () Int)
(declare-fun cell_3_5 () Int)
(declare-fun cell_4_5 () Int)
(declare-fun cell_5_5 () Int)
(declare-fun cell_6_5 () Int)
(declare-fun cell_8_5 () Int)
(declare-fun cell_1_6 () Int)
(declare-fun cell_2_6 () Int)
(declare-fun cell_3_6 () Int)
(declare-fun cell_5_6 () Int)
(declare-fun cell_7_6 () Int)
(declare-fun cell_8_6 () Int)
(declare-fun cell_9_6 () Int)
(declare-fun cell_2_7 () Int)
(declare-fun cell_3_7 () Int)
(declare-fun cell_4_7 () Int)
(declare-fun cell_5_7 () Int)
(declare-fun cell_6_7 () Int)
(declare-fun cell_8_7 () Int)
(declare-fun cell_9_7 () Int)
(declare-fun cell_2_8 () Int)
(declare-fun cell_3_8 () Int)
(declare-fun cell_5_8 () Int)
(declare-fun cell_6_8 () Int)
(declare-fun cell_7_8 () Int)
(declare-fun cell_8_8 () Int)
(declare-fun cell_9_8 () Int)
(declare-fun cell_1_9 () Int)
(declare-fun cell_2_9 () Int)
(declare-fun cell_3_9 () Int)
(declare-fun cell_4_9 () Int)
(declare-fun cell_5_9 () Int)
(declare-fun cell_7_9 () Int)
(declare-fun cell_9_9 () Int)
(assert
 (= cell_1_4 3))
(assert
 (= cell_1_7 1))
(assert
 (= cell_1_8 2))
(assert
 (= cell_2_1 2))
(assert
 (= cell_2_4 1))
(assert
 (= cell_3_2 1))
(assert
 (= cell_3_4 2))
(assert
 (= cell_4_6 2))
(assert
 (= cell_4_8 1))
(assert
 (= cell_5_2 2))
(assert
 (= cell_5_3 1))
(assert
 (= cell_6_6 1))
(assert
 (= cell_6_9 2))
(assert
 (= cell_7_5 1))
(assert
 (= cell_7_7 2))
(assert
 (= cell_8_3 2))
(assert
 (= cell_8_9 1))
(assert
 (= cell_9_1 1))
(assert
 (= cell_9_5 2))
(assert
 (let (($x335 (= cell_1_1 9)))
 (let (($x9019 (= cell_1_1 8)))
 (let (($x8998 (= cell_1_1 7)))
 (let (($x5840 (= cell_1_1 6)))
 (let (($x7558 (= cell_1_1 5)))
 (let (($x3799 (= cell_1_1 4)))
 (let (($x5060 (= cell_1_1 3)))
 (let (($x6066 (= cell_1_1 2)))
 (let (($x4334 (= cell_1_1 1)))
 (or $x4334 $x6066 $x5060 $x3799 $x7558 $x5840 $x8998 $x9019 $x335)))))))))))
(assert
 (let (($x5863 (= cell_2_1 2)))
 (or (= cell_2_1 1) $x5863 (= cell_2_1 3) (= cell_2_1 4) (= cell_2_1 5) (= cell_2_1 6) (= cell_2_1 7) (= cell_2_1 8) (= cell_2_1 9))))
(assert
 (let (($x1017 (= cell_3_1 9)))
 (let (($x3159 (= cell_3_1 8)))
 (let (($x7609 (= cell_3_1 7)))
 (let (($x8735 (= cell_3_1 6)))
 (let (($x9756 (= cell_3_1 5)))
 (let (($x5364 (= cell_3_1 4)))
 (let (($x3684 (= cell_3_1 3)))
 (let (($x8602 (= cell_3_1 2)))
 (let (($x9824 (= cell_3_1 1)))
 (or $x9824 $x8602 $x3684 $x5364 $x9756 $x8735 $x7609 $x3159 $x1017)))))))))))
(assert
 (let (($x6111 (= cell_4_1 9)))
 (let (($x1329 (= cell_4_1 8)))
 (let (($x7092 (= cell_4_1 7)))
 (let (($x10174 (= cell_4_1 6)))
 (let (($x918 (= cell_4_1 5)))
 (let (($x3046 (= cell_4_1 4)))
 (let (($x5960 (= cell_4_1 3)))
 (let (($x7522 (= cell_4_1 2)))
 (let (($x5988 (= cell_4_1 1)))
 (or $x5988 $x7522 $x5960 $x3046 $x918 $x10174 $x7092 $x1329 $x6111)))))))))))
(assert
 (let (($x10183 (= cell_5_1 9)))
 (let (($x4096 (= cell_5_1 8)))
 (let (($x4366 (= cell_5_1 7)))
 (let (($x8201 (= cell_5_1 6)))
 (let (($x7698 (= cell_5_1 5)))
 (let (($x3510 (= cell_5_1 4)))
 (let (($x6362 (= cell_5_1 3)))
 (let (($x4528 (= cell_5_1 2)))
 (let (($x5579 (= cell_5_1 1)))
 (or $x5579 $x4528 $x6362 $x3510 $x7698 $x8201 $x4366 $x4096 $x10183)))))))))))
(assert
 (let (($x1273 (= cell_6_1 9)))
 (let (($x7084 (= cell_6_1 8)))
 (let (($x3111 (= cell_6_1 7)))
 (let (($x9842 (= cell_6_1 6)))
 (let (($x561 (= cell_6_1 5)))
 (let (($x7590 (= cell_6_1 4)))
 (let (($x5897 (= cell_6_1 3)))
 (let (($x4620 (= cell_6_1 2)))
 (let (($x1135 (= cell_6_1 1)))
 (or $x1135 $x4620 $x5897 $x7590 $x561 $x9842 $x3111 $x7084 $x1273)))))))))))
(assert
 (let (($x8407 (= cell_7_1 9)))
 (let (($x633 (= cell_7_1 8)))
 (let (($x1035 (= cell_7_1 7)))
 (let (($x5225 (= cell_7_1 6)))
 (let (($x95 (= cell_7_1 5)))
 (let (($x2787 (= cell_7_1 4)))
 (let (($x8716 (= cell_7_1 3)))
 (let (($x966 (= cell_7_1 2)))
 (let (($x3587 (= cell_7_1 1)))
 (or $x3587 $x966 $x8716 $x2787 $x95 $x5225 $x1035 $x633 $x8407)))))))))))
(assert
 (let (($x906 (= cell_8_1 9)))
 (let (($x8449 (= cell_8_1 8)))
 (let (($x4557 (= cell_8_1 7)))
 (let (($x7657 (= cell_8_1 6)))
 (let (($x7635 (= cell_8_1 5)))
 (let (($x3194 (= cell_8_1 4)))
 (let (($x1899 (= cell_8_1 3)))
 (let (($x4763 (= cell_8_1 2)))
 (let (($x7011 (= cell_8_1 1)))
 (or $x7011 $x4763 $x1899 $x3194 $x7635 $x7657 $x4557 $x8449 $x906)))))))))))
(assert
 (let (($x8863 (= cell_9_1 1)))
 (or $x8863 (= cell_9_1 2) (= cell_9_1 3) (= cell_9_1 4) (= cell_9_1 5) (= cell_9_1 6) (= cell_9_1 7) (= cell_9_1 8) (= cell_9_1 9))))
(assert
 (let (($x2800 (= cell_1_2 9)))
 (let (($x8374 (= cell_1_2 8)))
 (let (($x9632 (= cell_1_2 7)))
 (let (($x7244 (= cell_1_2 6)))
 (let (($x8113 (= cell_1_2 5)))
 (let (($x8588 (= cell_1_2 4)))
 (let (($x606 (= cell_1_2 3)))
 (let (($x7288 (= cell_1_2 2)))
 (let (($x5101 (= cell_1_2 1)))
 (or $x5101 $x7288 $x606 $x8588 $x8113 $x7244 $x9632 $x8374 $x2800)))))))))))
(assert
 (let (($x1240 (= cell_2_2 9)))
 (let (($x5569 (= cell_2_2 8)))
 (let (($x25 (= cell_2_2 7)))
 (let (($x2785 (= cell_2_2 6)))
 (let (($x7357 (= cell_2_2 5)))
 (let (($x26 (= cell_2_2 4)))
 (let (($x9704 (= cell_2_2 3)))
 (let (($x4276 (= cell_2_2 2)))
 (let (($x9603 (= cell_2_2 1)))
 (or $x9603 $x4276 $x9704 $x26 $x7357 $x2785 $x25 $x5569 $x1240)))))))))))
(assert
 (let (($x4069 (= cell_3_2 1)))
 (or $x4069 (= cell_3_2 2) (= cell_3_2 3) (= cell_3_2 4) (= cell_3_2 5) (= cell_3_2 6) (= cell_3_2 7) (= cell_3_2 8) (= cell_3_2 9))))
(assert
 (let (($x4317 (= cell_4_2 9)))
 (let (($x1893 (= cell_4_2 8)))
 (let (($x8791 (= cell_4_2 7)))
 (let (($x9523 (= cell_4_2 6)))
 (let (($x5382 (= cell_4_2 5)))
 (let (($x5040 (= cell_4_2 4)))
 (let (($x4750 (= cell_4_2 3)))
 (let (($x2985 (= cell_4_2 2)))
 (let (($x5400 (= cell_4_2 1)))
 (or $x5400 $x2985 $x4750 $x5040 $x5382 $x9523 $x8791 $x1893 $x4317)))))))))))
(assert
 (let (($x147 (= cell_5_2 2)))
 (or (= cell_5_2 1) $x147 (= cell_5_2 3) (= cell_5_2 4) (= cell_5_2 5) (= cell_5_2 6) (= cell_5_2 7) (= cell_5_2 8) (= cell_5_2 9))))
(assert
 (let (($x8493 (= cell_6_2 9)))
 (let (($x1450 (= cell_6_2 8)))
 (let (($x3404 (= cell_6_2 7)))
 (let (($x534 (= cell_6_2 6)))
 (let (($x9902 (= cell_6_2 5)))
 (let (($x5521 (= cell_6_2 4)))
 (let (($x799 (= cell_6_2 3)))
 (let (($x8213 (= cell_6_2 2)))
 (let (($x8812 (= cell_6_2 1)))
 (or $x8812 $x8213 $x799 $x5521 $x9902 $x534 $x3404 $x1450 $x8493)))))))))))
(assert
 (let (($x4170 (= cell_7_2 9)))
 (let (($x4068 (= cell_7_2 8)))
 (let (($x8052 (= cell_7_2 7)))
 (let (($x8244 (= cell_7_2 6)))
 (let (($x10206 (= cell_7_2 5)))
 (let (($x9747 (= cell_7_2 4)))
 (let (($x1188 (= cell_7_2 3)))
 (let (($x4292 (= cell_7_2 2)))
 (let (($x9755 (= cell_7_2 1)))
 (or $x9755 $x4292 $x1188 $x9747 $x10206 $x8244 $x8052 $x4068 $x4170)))))))))))
(assert
 (let (($x7200 (= cell_8_2 9)))
 (let (($x9423 (= cell_8_2 8)))
 (let (($x5457 (= cell_8_2 7)))
 (let (($x3687 (= cell_8_2 6)))
 (let (($x1331 (= cell_8_2 5)))
 (let (($x3031 (= cell_8_2 4)))
 (let (($x5463 (= cell_8_2 3)))
 (let (($x1041 (= cell_8_2 2)))
 (let (($x4743 (= cell_8_2 1)))
 (or $x4743 $x1041 $x5463 $x3031 $x1331 $x3687 $x5457 $x9423 $x7200)))))))))))
(assert
 (let (($x1420 (= cell_9_2 9)))
 (let (($x10050 (= cell_9_2 8)))
 (let (($x1785 (= cell_9_2 7)))
 (let (($x4274 (= cell_9_2 6)))
 (let (($x4448 (= cell_9_2 5)))
 (let (($x4301 (= cell_9_2 4)))
 (let (($x8873 (= cell_9_2 3)))
 (let (($x5750 (= cell_9_2 2)))
 (let (($x5854 (= cell_9_2 1)))
 (or $x5854 $x5750 $x8873 $x4301 $x4448 $x4274 $x1785 $x10050 $x1420)))))))))))
(assert
 (let (($x2156 (= cell_1_3 9)))
 (let (($x7172 (= cell_1_3 8)))
 (let (($x2718 (= cell_1_3 7)))
 (let (($x4866 (= cell_1_3 6)))
 (let (($x355 (= cell_1_3 5)))
 (let (($x591 (= cell_1_3 4)))
 (let (($x9 (= cell_1_3 3)))
 (let (($x7669 (= cell_1_3 2)))
 (let (($x6842 (= cell_1_3 1)))
 (or $x6842 $x7669 $x9 $x591 $x355 $x4866 $x2718 $x7172 $x2156)))))))))))
(assert
 (let (($x7138 (= cell_2_3 9)))
 (let (($x2079 (= cell_2_3 8)))
 (let (($x7201 (= cell_2_3 7)))
 (let (($x9091 (= cell_2_3 6)))
 (let (($x3935 (= cell_2_3 5)))
 (let (($x5433 (= cell_2_3 4)))
 (let (($x3457 (= cell_2_3 3)))
 (let (($x6366 (= cell_2_3 2)))
 (let (($x8680 (= cell_2_3 1)))
 (or $x8680 $x6366 $x3457 $x5433 $x3935 $x9091 $x7201 $x2079 $x7138)))))))))))
(assert
 (let (($x3509 (= cell_3_3 9)))
 (let (($x5507 (= cell_3_3 8)))
 (let (($x777 (= cell_3_3 7)))
 (let (($x97 (= cell_3_3 6)))
 (let (($x9971 (= cell_3_3 5)))
 (let (($x6975 (= cell_3_3 4)))
 (let (($x7691 (= cell_3_3 3)))
 (let (($x1352 (= cell_3_3 2)))
 (let (($x8526 (= cell_3_3 1)))
 (or $x8526 $x1352 $x7691 $x6975 $x9971 $x97 $x777 $x5507 $x3509)))))))))))
(assert
 (let (($x8151 (= cell_4_3 9)))
 (let (($x4712 (= cell_4_3 8)))
 (let (($x9032 (= cell_4_3 7)))
 (let (($x5296 (= cell_4_3 6)))
 (let (($x5722 (= cell_4_3 5)))
 (let (($x5599 (= cell_4_3 4)))
 (let (($x5503 (= cell_4_3 3)))
 (let (($x1257 (= cell_4_3 2)))
 (let (($x3409 (= cell_4_3 1)))
 (or $x3409 $x1257 $x5503 $x5599 $x5722 $x5296 $x9032 $x4712 $x8151)))))))))))
(assert
 (let (($x5601 (= cell_5_3 1)))
 (or $x5601 (= cell_5_3 2) (= cell_5_3 3) (= cell_5_3 4) (= cell_5_3 5) (= cell_5_3 6) (= cell_5_3 7) (= cell_5_3 8) (= cell_5_3 9))))
(assert
 (let (($x7844 (= cell_6_3 9)))
 (let (($x7499 (= cell_6_3 8)))
 (let (($x4752 (= cell_6_3 7)))
 (let (($x7033 (= cell_6_3 6)))
 (let (($x5017 (= cell_6_3 5)))
 (let (($x7270 (= cell_6_3 4)))
 (let (($x1111 (= cell_6_3 3)))
 (let (($x4250 (= cell_6_3 2)))
 (let (($x2364 (= cell_6_3 1)))
 (or $x2364 $x4250 $x1111 $x7270 $x5017 $x7033 $x4752 $x7499 $x7844)))))))))))
(assert
 (let (($x2407 (= cell_7_3 9)))
 (let (($x4501 (= cell_7_3 8)))
 (let (($x4732 (= cell_7_3 7)))
 (let (($x7984 (= cell_7_3 6)))
 (let (($x9628 (= cell_7_3 5)))
 (let (($x3201 (= cell_7_3 4)))
 (let (($x4433 (= cell_7_3 3)))
 (let (($x8621 (= cell_7_3 2)))
 (let (($x4669 (= cell_7_3 1)))
 (or $x4669 $x8621 $x4433 $x3201 $x9628 $x7984 $x4732 $x4501 $x2407)))))))))))
(assert
 (let (($x9466 (= cell_8_3 2)))
 (or (= cell_8_3 1) $x9466 (= cell_8_3 3) (= cell_8_3 4) (= cell_8_3 5) (= cell_8_3 6) (= cell_8_3 7) (= cell_8_3 8) (= cell_8_3 9))))
(assert
 (let (($x7129 (= cell_9_3 9)))
 (let (($x3971 (= cell_9_3 8)))
 (let (($x1533 (= cell_9_3 7)))
 (let (($x1743 (= cell_9_3 6)))
 (let (($x8015 (= cell_9_3 5)))
 (let (($x8973 (= cell_9_3 4)))
 (let (($x2287 (= cell_9_3 3)))
 (let (($x7784 (= cell_9_3 2)))
 (let (($x4158 (= cell_9_3 1)))
 (or $x4158 $x7784 $x2287 $x8973 $x8015 $x1743 $x1533 $x3971 $x7129)))))))))))
(assert
 (let (($x2144 (= cell_1_4 3)))
 (or (= cell_1_4 1) (= cell_1_4 2) $x2144 (= cell_1_4 4) (= cell_1_4 5) (= cell_1_4 6) (= cell_1_4 7) (= cell_1_4 8) (= cell_1_4 9))))
(assert
 (let (($x941 (= cell_2_4 1)))
 (or $x941 (= cell_2_4 2) (= cell_2_4 3) (= cell_2_4 4) (= cell_2_4 5) (= cell_2_4 6) (= cell_2_4 7) (= cell_2_4 8) (= cell_2_4 9))))
(assert
 (let (($x2472 (= cell_3_4 2)))
 (or (= cell_3_4 1) $x2472 (= cell_3_4 3) (= cell_3_4 4) (= cell_3_4 5) (= cell_3_4 6) (= cell_3_4 7) (= cell_3_4 8) (= cell_3_4 9))))
(assert
 (let (($x8916 (= cell_4_4 9)))
 (let (($x1010 (= cell_4_4 8)))
 (let (($x5905 (= cell_4_4 7)))
 (let (($x425 (= cell_4_4 6)))
 (let (($x1122 (= cell_4_4 5)))
 (let (($x5991 (= cell_4_4 4)))
 (let (($x5103 (= cell_4_4 3)))
 (let (($x6045 (= cell_4_4 2)))
 (let (($x6470 (= cell_4_4 1)))
 (or $x6470 $x6045 $x5103 $x5991 $x1122 $x425 $x5905 $x1010 $x8916)))))))))))
(assert
 (let (($x5145 (= cell_5_4 9)))
 (let (($x2756 (= cell_5_4 8)))
 (let (($x3665 (= cell_5_4 7)))
 (let (($x2719 (= cell_5_4 6)))
 (let (($x1413 (= cell_5_4 5)))
 (let (($x1794 (= cell_5_4 4)))
 (let (($x5754 (= cell_5_4 3)))
 (let (($x8517 (= cell_5_4 2)))
 (let (($x9277 (= cell_5_4 1)))
 (or $x9277 $x8517 $x5754 $x1794 $x1413 $x2719 $x3665 $x2756 $x5145)))))))))))
(assert
 (let (($x178 (= cell_6_4 9)))
 (let (($x6497 (= cell_6_4 8)))
 (let (($x2979 (= cell_6_4 7)))
 (let (($x5113 (= cell_6_4 6)))
 (let (($x154 (= cell_6_4 5)))
 (let (($x6122 (= cell_6_4 4)))
 (let (($x3017 (= cell_6_4 3)))
 (let (($x3223 (= cell_6_4 2)))
 (let (($x402 (= cell_6_4 1)))
 (or $x402 $x3223 $x3017 $x6122 $x154 $x5113 $x2979 $x6497 $x178)))))))))))
(assert
 (let (($x1554 (= cell_7_4 9)))
 (let (($x4863 (= cell_7_4 8)))
 (let (($x8684 (= cell_7_4 7)))
 (let (($x9688 (= cell_7_4 6)))
 (let (($x7245 (= cell_7_4 5)))
 (let (($x739 (= cell_7_4 4)))
 (let (($x3487 (= cell_7_4 3)))
 (let (($x373 (= cell_7_4 2)))
 (let (($x5473 (= cell_7_4 1)))
 (or $x5473 $x373 $x3487 $x739 $x7245 $x9688 $x8684 $x4863 $x1554)))))))))))
(assert
 (let (($x6310 (= cell_8_4 9)))
 (let (($x3045 (= cell_8_4 8)))
 (let (($x5773 (= cell_8_4 7)))
 (let (($x10160 (= cell_8_4 6)))
 (let (($x4466 (= cell_8_4 5)))
 (let (($x5768 (= cell_8_4 4)))
 (let (($x1732 (= cell_8_4 3)))
 (let (($x959 (= cell_8_4 2)))
 (let (($x6592 (= cell_8_4 1)))
 (or $x6592 $x959 $x1732 $x5768 $x4466 $x10160 $x5773 $x3045 $x6310)))))))))))
(assert
 (let (($x2434 (= cell_9_4 9)))
 (let (($x5065 (= cell_9_4 8)))
 (let (($x3423 (= cell_9_4 7)))
 (let (($x1241 (= cell_9_4 6)))
 (let (($x1610 (= cell_9_4 5)))
 (let (($x8415 (= cell_9_4 4)))
 (let (($x206 (= cell_9_4 3)))
 (let (($x5189 (= cell_9_4 2)))
 (let (($x6004 (= cell_9_4 1)))
 (or $x6004 $x5189 $x206 $x8415 $x1610 $x1241 $x3423 $x5065 $x2434)))))))))))
(assert
 (let (($x7263 (= cell_1_5 9)))
 (let (($x5097 (= cell_1_5 8)))
 (let (($x1483 (= cell_1_5 7)))
 (let (($x3197 (= cell_1_5 6)))
 (let (($x6594 (= cell_1_5 5)))
 (let (($x2347 (= cell_1_5 4)))
 (let (($x5706 (= cell_1_5 3)))
 (let (($x7886 (= cell_1_5 2)))
 (let (($x9421 (= cell_1_5 1)))
 (or $x9421 $x7886 $x5706 $x2347 $x6594 $x3197 $x1483 $x5097 $x7263)))))))))))
(assert
 (let (($x596 (= cell_2_5 9)))
 (let (($x6830 (= cell_2_5 8)))
 (let (($x8650 (= cell_2_5 7)))
 (let (($x3311 (= cell_2_5 6)))
 (let (($x5791 (= cell_2_5 5)))
 (let (($x3695 (= cell_2_5 4)))
 (let (($x8271 (= cell_2_5 3)))
 (let (($x6535 (= cell_2_5 2)))
 (let (($x4369 (= cell_2_5 1)))
 (or $x4369 $x6535 $x8271 $x3695 $x5791 $x3311 $x8650 $x6830 $x596)))))))))))
(assert
 (let (($x121 (= cell_3_5 9)))
 (let (($x8111 (= cell_3_5 8)))
 (let (($x4413 (= cell_3_5 7)))
 (let (($x8083 (= cell_3_5 6)))
 (let (($x435 (= cell_3_5 5)))
 (let (($x6208 (= cell_3_5 4)))
 (let (($x7534 (= cell_3_5 3)))
 (let (($x8649 (= cell_3_5 2)))
 (let (($x9725 (= cell_3_5 1)))
 (or $x9725 $x8649 $x7534 $x6208 $x435 $x8083 $x4413 $x8111 $x121)))))))))))
(assert
 (let (($x2073 (= cell_4_5 9)))
 (let (($x1223 (= cell_4_5 8)))
 (let (($x1455 (= cell_4_5 7)))
 (let (($x4639 (= cell_4_5 6)))
 (let (($x9049 (= cell_4_5 5)))
 (let (($x7315 (= cell_4_5 4)))
 (let (($x3815 (= cell_4_5 3)))
 (let (($x6708 (= cell_4_5 2)))
 (let (($x388 (= cell_4_5 1)))
 (or $x388 $x6708 $x3815 $x7315 $x9049 $x4639 $x1455 $x1223 $x2073)))))))))))
(assert
 (let (($x3136 (= cell_5_5 9)))
 (let (($x1568 (= cell_5_5 8)))
 (let (($x8066 (= cell_5_5 7)))
 (let (($x5724 (= cell_5_5 6)))
 (let (($x303 (= cell_5_5 5)))
 (let (($x8221 (= cell_5_5 4)))
 (let (($x7996 (= cell_5_5 3)))
 (let (($x3408 (= cell_5_5 2)))
 (let (($x1990 (= cell_5_5 1)))
 (or $x1990 $x3408 $x7996 $x8221 $x303 $x5724 $x8066 $x1568 $x3136)))))))))))
(assert
 (let (($x4014 (= cell_6_5 9)))
 (let (($x9953 (= cell_6_5 8)))
 (let (($x8483 (= cell_6_5 7)))
 (let (($x5301 (= cell_6_5 6)))
 (let (($x851 (= cell_6_5 5)))
 (let (($x7327 (= cell_6_5 4)))
 (let (($x3004 (= cell_6_5 3)))
 (let (($x2067 (= cell_6_5 2)))
 (let (($x2873 (= cell_6_5 1)))
 (or $x2873 $x2067 $x3004 $x7327 $x851 $x5301 $x8483 $x9953 $x4014)))))))))))
(assert
 (let (($x4230 (= cell_7_5 1)))
 (or $x4230 (= cell_7_5 2) (= cell_7_5 3) (= cell_7_5 4) (= cell_7_5 5) (= cell_7_5 6) (= cell_7_5 7) (= cell_7_5 8) (= cell_7_5 9))))
(assert
 (let (($x1788 (= cell_8_5 9)))
 (let (($x4265 (= cell_8_5 8)))
 (let (($x4352 (= cell_8_5 7)))
 (let (($x5232 (= cell_8_5 6)))
 (let (($x5512 (= cell_8_5 5)))
 (let (($x7830 (= cell_8_5 4)))
 (let (($x984 (= cell_8_5 3)))
 (let (($x2941 (= cell_8_5 2)))
 (let (($x1131 (= cell_8_5 1)))
 (or $x1131 $x2941 $x984 $x7830 $x5512 $x5232 $x4352 $x4265 $x1788)))))))))))
(assert
 (let (($x8171 (= cell_9_5 2)))
 (or (= cell_9_5 1) $x8171 (= cell_9_5 3) (= cell_9_5 4) (= cell_9_5 5) (= cell_9_5 6) (= cell_9_5 7) (= cell_9_5 8) (= cell_9_5 9))))
(assert
 (let (($x145 (= cell_1_6 9)))
 (let (($x8819 (= cell_1_6 8)))
 (let (($x9919 (= cell_1_6 7)))
 (let (($x2380 (= cell_1_6 6)))
 (let (($x6400 (= cell_1_6 5)))
 (let (($x2503 (= cell_1_6 4)))
 (let (($x6646 (= cell_1_6 3)))
 (let (($x3637 (= cell_1_6 2)))
 (let (($x9812 (= cell_1_6 1)))
 (or $x9812 $x3637 $x6646 $x2503 $x6400 $x2380 $x9919 $x8819 $x145)))))))))))
(assert
 (let (($x2707 (= cell_2_6 9)))
 (let (($x3478 (= cell_2_6 8)))
 (let (($x2495 (= cell_2_6 7)))
 (let (($x8525 (= cell_2_6 6)))
 (let (($x9686 (= cell_2_6 5)))
 (let (($x4711 (= cell_2_6 4)))
 (let (($x3341 (= cell_2_6 3)))
 (let (($x4271 (= cell_2_6 2)))
 (let (($x809 (= cell_2_6 1)))
 (or $x809 $x4271 $x3341 $x4711 $x9686 $x8525 $x2495 $x3478 $x2707)))))))))))
(assert
 (let (($x6312 (= cell_3_6 9)))
 (let (($x942 (= cell_3_6 8)))
 (let (($x5643 (= cell_3_6 7)))
 (let (($x8855 (= cell_3_6 6)))
 (let (($x2910 (= cell_3_6 5)))
 (let (($x8886 (= cell_3_6 4)))
 (let (($x8569 (= cell_3_6 3)))
 (let (($x2879 (= cell_3_6 2)))
 (let (($x5514 (= cell_3_6 1)))
 (or $x5514 $x2879 $x8569 $x8886 $x2910 $x8855 $x5643 $x942 $x6312)))))))))))
(assert
 (let (($x3741 (= cell_4_6 2)))
 (or (= cell_4_6 1) $x3741 (= cell_4_6 3) (= cell_4_6 4) (= cell_4_6 5) (= cell_4_6 6) (= cell_4_6 7) (= cell_4_6 8) (= cell_4_6 9))))
(assert
 (let (($x4387 (= cell_5_6 9)))
 (let (($x1440 (= cell_5_6 8)))
 (let (($x6198 (= cell_5_6 7)))
 (let (($x4579 (= cell_5_6 6)))
 (let (($x4399 (= cell_5_6 5)))
 (let (($x4037 (= cell_5_6 4)))
 (let (($x1580 (= cell_5_6 3)))
 (let (($x4857 (= cell_5_6 2)))
 (let (($x861 (= cell_5_6 1)))
 (or $x861 $x4857 $x1580 $x4037 $x4399 $x4579 $x6198 $x1440 $x4387)))))))))))
(assert
 (let (($x7508 (= cell_6_6 1)))
 (or $x7508 (= cell_6_6 2) (= cell_6_6 3) (= cell_6_6 4) (= cell_6_6 5) (= cell_6_6 6) (= cell_6_6 7) (= cell_6_6 8) (= cell_6_6 9))))
(assert
 (let (($x6223 (= cell_7_6 9)))
 (let (($x94 (= cell_7_6 8)))
 (let (($x8624 (= cell_7_6 7)))
 (let (($x8086 (= cell_7_6 6)))
 (let (($x8421 (= cell_7_6 5)))
 (let (($x9930 (= cell_7_6 4)))
 (let (($x7903 (= cell_7_6 3)))
 (let (($x9296 (= cell_7_6 2)))
 (let (($x684 (= cell_7_6 1)))
 (or $x684 $x9296 $x7903 $x9930 $x8421 $x8086 $x8624 $x94 $x6223)))))))))))
(assert
 (let (($x1364 (= cell_8_6 9)))
 (let (($x2552 (= cell_8_6 8)))
 (let (($x1367 (= cell_8_6 7)))
 (let (($x1127 (= cell_8_6 6)))
 (let (($x1659 (= cell_8_6 5)))
 (let (($x4634 (= cell_8_6 4)))
 (let (($x1588 (= cell_8_6 3)))
 (let (($x1493 (= cell_8_6 2)))
 (let (($x9858 (= cell_8_6 1)))
 (or $x9858 $x1493 $x1588 $x4634 $x1659 $x1127 $x1367 $x2552 $x1364)))))))))))
(assert
 (let (($x3759 (= cell_9_6 2)))
 (let (($x9029 (= cell_9_6 1)))
 (or $x9029 $x3759 (= cell_9_6 3) (= cell_9_6 4) (= cell_9_6 5) (= cell_9_6 6) (= cell_9_6 7) (= cell_9_6 8) (= cell_9_6 9)))))
(assert
 (let (($x5913 (= cell_1_7 1)))
 (or $x5913 (= cell_1_7 2) (= cell_1_7 3) (= cell_1_7 4) (= cell_1_7 5) (= cell_1_7 6) (= cell_1_7 7) (= cell_1_7 8) (= cell_1_7 9))))
(assert
 (let (($x6358 (= cell_2_7 9)))
 (let (($x278 (= cell_2_7 8)))
 (let (($x6998 (= cell_2_7 7)))
 (let (($x10116 (= cell_2_7 6)))
 (let (($x3444 (= cell_2_7 5)))
 (let (($x2124 (= cell_2_7 4)))
 (let (($x4729 (= cell_2_7 3)))
 (let (($x1476 (= cell_2_7 2)))
 (let (($x7422 (= cell_2_7 1)))
 (or $x7422 $x1476 $x4729 $x2124 $x3444 $x10116 $x6998 $x278 $x6358)))))))))))
(assert
 (let (($x27 (= cell_3_7 9)))
 (let (($x7220 (= cell_3_7 8)))
 (let (($x735 (= cell_3_7 7)))
 (let (($x6891 (= cell_3_7 6)))
 (let (($x6311 (= cell_3_7 5)))
 (let (($x4727 (= cell_3_7 4)))
 (let (($x9493 (= cell_3_7 3)))
 (let (($x4966 (= cell_3_7 2)))
 (let (($x8402 (= cell_3_7 1)))
 (or $x8402 $x4966 $x9493 $x4727 $x6311 $x6891 $x735 $x7220 $x27)))))))))))
(assert
 (let (($x2090 (= cell_4_7 9)))
 (let (($x8014 (= cell_4_7 8)))
 (let (($x9077 (= cell_4_7 7)))
 (let (($x4264 (= cell_4_7 6)))
 (let (($x10032 (= cell_4_7 5)))
 (let (($x8154 (= cell_4_7 4)))
 (let (($x5590 (= cell_4_7 3)))
 (let (($x5790 (= cell_4_7 2)))
 (let (($x356 (= cell_4_7 1)))
 (or $x356 $x5790 $x5590 $x8154 $x10032 $x4264 $x9077 $x8014 $x2090)))))))))))
(assert
 (let (($x8813 (= cell_5_7 9)))
 (let (($x2898 (= cell_5_7 8)))
 (let (($x5629 (= cell_5_7 7)))
 (let (($x1671 (= cell_5_7 6)))
 (let (($x5600 (= cell_5_7 5)))
 (let (($x7637 (= cell_5_7 4)))
 (let (($x3810 (= cell_5_7 3)))
 (let (($x6550 (= cell_5_7 2)))
 (let (($x3877 (= cell_5_7 1)))
 (or $x3877 $x6550 $x3810 $x7637 $x5600 $x1671 $x5629 $x2898 $x8813)))))))))))
(assert
 (let (($x2456 (= cell_6_7 9)))
 (let (($x4266 (= cell_6_7 8)))
 (let (($x4127 (= cell_6_7 7)))
 (let (($x4220 (= cell_6_7 6)))
 (let (($x6222 (= cell_6_7 5)))
 (let (($x4425 (= cell_6_7 4)))
 (let (($x8966 (= cell_6_7 3)))
 (let (($x8864 (= cell_6_7 2)))
 (let (($x4591 (= cell_6_7 1)))
 (or $x4591 $x8864 $x8966 $x4425 $x6222 $x4220 $x4127 $x4266 $x2456)))))))))))
(assert
 (let (($x8114 (= cell_7_7 2)))
 (or (= cell_7_7 1) $x8114 (= cell_7_7 3) (= cell_7_7 4) (= cell_7_7 5) (= cell_7_7 6) (= cell_7_7 7) (= cell_7_7 8) (= cell_7_7 9))))
(assert
 (let (($x785 (= cell_8_7 9)))
 (let (($x7721 (= cell_8_7 8)))
 (let (($x6250 (= cell_8_7 7)))
 (let (($x2198 (= cell_8_7 6)))
 (let (($x463 (= cell_8_7 5)))
 (let (($x1787 (= cell_8_7 4)))
 (let (($x7030 (= cell_8_7 3)))
 (let (($x3452 (= cell_8_7 2)))
 (let (($x6787 (= cell_8_7 1)))
 (or $x6787 $x3452 $x7030 $x1787 $x463 $x2198 $x6250 $x7721 $x785)))))))))))
(assert
 (let (($x4077 (= cell_9_7 2)))
 (let (($x9892 (= cell_9_7 1)))
 (or $x9892 $x4077 (= cell_9_7 3) (= cell_9_7 4) (= cell_9_7 5) (= cell_9_7 6) (= cell_9_7 7) (= cell_9_7 8) (= cell_9_7 9)))))
(assert
 (let (($x3049 (= cell_1_8 2)))
 (or (= cell_1_8 1) $x3049 (= cell_1_8 3) (= cell_1_8 4) (= cell_1_8 5) (= cell_1_8 6) (= cell_1_8 7) (= cell_1_8 8) (= cell_1_8 9))))
(assert
 (let (($x6976 (= cell_2_8 9)))
 (let (($x8189 (= cell_2_8 8)))
 (let (($x7442 (= cell_2_8 7)))
 (let (($x1300 (= cell_2_8 6)))
 (let (($x763 (= cell_2_8 5)))
 (let (($x3700 (= cell_2_8 4)))
 (let (($x7597 (= cell_2_8 3)))
 (let (($x1384 (= cell_2_8 2)))
 (let (($x7761 (= cell_2_8 1)))
 (or $x7761 $x1384 $x7597 $x3700 $x763 $x1300 $x7442 $x8189 $x6976)))))))))))
(assert
 (let (($x8504 (= cell_3_8 9)))
 (let (($x6060 (= cell_3_8 8)))
 (let (($x2355 (= cell_3_8 7)))
 (let (($x1071 (= cell_3_8 6)))
 (let (($x806 (= cell_3_8 5)))
 (let (($x8381 (= cell_3_8 4)))
 (let (($x2168 (= cell_3_8 3)))
 (let (($x4473 (= cell_3_8 2)))
 (let (($x2900 (= cell_3_8 1)))
 (or $x2900 $x4473 $x2168 $x8381 $x806 $x1071 $x2355 $x6060 $x8504)))))))))))
(assert
 (let (($x8989 (= cell_4_8 1)))
 (or $x8989 (= cell_4_8 2) (= cell_4_8 3) (= cell_4_8 4) (= cell_4_8 5) (= cell_4_8 6) (= cell_4_8 7) (= cell_4_8 8) (= cell_4_8 9))))
(assert
 (let (($x6789 (= cell_5_8 9)))
 (let (($x1690 (= cell_5_8 8)))
 (let (($x7367 (= cell_5_8 7)))
 (let (($x6581 (= cell_5_8 6)))
 (let (($x346 (= cell_5_8 5)))
 (let (($x5102 (= cell_5_8 4)))
 (let (($x9638 (= cell_5_8 3)))
 (let (($x9743 (= cell_5_8 2)))
 (let (($x480 (= cell_5_8 1)))
 (or $x480 $x9743 $x9638 $x5102 $x346 $x6581 $x7367 $x1690 $x6789)))))))))))
(assert
 (let (($x6551 (= cell_6_8 9)))
 (let (($x187 (= cell_6_8 8)))
 (let (($x6666 (= cell_6_8 7)))
 (let (($x6278 (= cell_6_8 6)))
 (let (($x8228 (= cell_6_8 5)))
 (let (($x8 (= cell_6_8 4)))
 (let (($x273 (= cell_6_8 3)))
 (let (($x3621 (= cell_6_8 2)))
 (let (($x6332 (= cell_6_8 1)))
 (or $x6332 $x3621 $x273 $x8 $x8228 $x6278 $x6666 $x187 $x6551)))))))))))
(assert
 (let (($x7441 (= cell_7_8 9)))
 (let (($x9651 (= cell_7_8 8)))
 (let (($x7867 (= cell_7_8 7)))
 (let (($x3189 (= cell_7_8 6)))
 (let (($x7144 (= cell_7_8 5)))
 (let (($x5201 (= cell_7_8 4)))
 (let (($x9063 (= cell_7_8 3)))
 (let (($x7305 (= cell_7_8 2)))
 (let (($x8361 (= cell_7_8 1)))
 (or $x8361 $x7305 $x9063 $x5201 $x7144 $x3189 $x7867 $x9651 $x7441)))))))))))
(assert
 (let (($x8335 (= cell_8_8 9)))
 (let (($x4038 (= cell_8_8 8)))
 (let (($x4855 (= cell_8_8 7)))
 (let (($x1634 (= cell_8_8 6)))
 (let (($x3811 (= cell_8_8 5)))
 (let (($x5405 (= cell_8_8 4)))
 (let (($x6166 (= cell_8_8 3)))
 (let (($x1665 (= cell_8_8 2)))
 (let (($x1861 (= cell_8_8 1)))
 (or $x1861 $x1665 $x6166 $x5405 $x3811 $x1634 $x4855 $x4038 $x8335)))))))))))
(assert
 (let (($x7425 (= cell_9_8 2)))
 (let (($x1553 (= cell_9_8 1)))
 (or $x1553 $x7425 (= cell_9_8 3) (= cell_9_8 4) (= cell_9_8 5) (= cell_9_8 6) (= cell_9_8 7) (= cell_9_8 8) (= cell_9_8 9)))))
(assert
 (let (($x8487 (= cell_1_9 9)))
 (let (($x10042 (= cell_1_9 8)))
 (let (($x6439 (= cell_1_9 7)))
 (let (($x5982 (= cell_1_9 6)))
 (let (($x6162 (= cell_1_9 5)))
 (let (($x982 (= cell_1_9 4)))
 (let (($x1693 (= cell_1_9 3)))
 (let (($x5380 (= cell_1_9 2)))
 (let (($x10121 (= cell_1_9 1)))
 (or $x10121 $x5380 $x1693 $x982 $x6162 $x5982 $x6439 $x10042 $x8487)))))))))))
(assert
 (let (($x4977 (= cell_2_9 9)))
 (let (($x1677 (= cell_2_9 8)))
 (let (($x7325 (= cell_2_9 7)))
 (let (($x5024 (= cell_2_9 6)))
 (let (($x1612 (= cell_2_9 5)))
 (let (($x693 (= cell_2_9 4)))
 (let (($x3133 (= cell_2_9 3)))
 (let (($x4648 (= cell_2_9 2)))
 (let (($x3564 (= cell_2_9 1)))
 (or $x3564 $x4648 $x3133 $x693 $x1612 $x5024 $x7325 $x1677 $x4977)))))))))))
(assert
 (let (($x4480 (= cell_3_9 9)))
 (let (($x1075 (= cell_3_9 8)))
 (let (($x6636 (= cell_3_9 7)))
 (let (($x8760 (= cell_3_9 6)))
 (let (($x4138 (= cell_3_9 5)))
 (let (($x3231 (= cell_3_9 4)))
 (let (($x1263 (= cell_3_9 3)))
 (let (($x2687 (= cell_3_9 2)))
 (let (($x944 (= cell_3_9 1)))
 (or $x944 $x2687 $x1263 $x3231 $x4138 $x8760 $x6636 $x1075 $x4480)))))))))))
(assert
 (let (($x2011 (= cell_4_9 9)))
 (let (($x2734 (= cell_4_9 8)))
 (let (($x6369 (= cell_4_9 7)))
 (let (($x5537 (= cell_4_9 6)))
 (let (($x6712 (= cell_4_9 5)))
 (let (($x5465 (= cell_4_9 4)))
 (let (($x461 (= cell_4_9 3)))
 (let (($x6804 (= cell_4_9 2)))
 (let (($x8948 (= cell_4_9 1)))
 (or $x8948 $x6804 $x461 $x5465 $x6712 $x5537 $x6369 $x2734 $x2011)))))))))))
(assert
 (let (($x9839 (= cell_5_9 9)))
 (let (($x5603 (= cell_5_9 8)))
 (let (($x6920 (= cell_5_9 7)))
 (let (($x10021 (= cell_5_9 6)))
 (let (($x9309 (= cell_5_9 5)))
 (let (($x7690 (= cell_5_9 4)))
 (let (($x9395 (= cell_5_9 3)))
 (let (($x6187 (= cell_5_9 2)))
 (let (($x9676 (= cell_5_9 1)))
 (or $x9676 $x6187 $x9395 $x7690 $x9309 $x10021 $x6920 $x5603 $x9839)))))))))))
(assert
 (let (($x1141 (= cell_6_9 2)))
 (or (= cell_6_9 1) $x1141 (= cell_6_9 3) (= cell_6_9 4) (= cell_6_9 5) (= cell_6_9 6) (= cell_6_9 7) (= cell_6_9 8) (= cell_6_9 9))))
(assert
 (let (($x6472 (= cell_7_9 9)))
 (let (($x5607 (= cell_7_9 8)))
 (let (($x6664 (= cell_7_9 7)))
 (let (($x5948 (= cell_7_9 6)))
 (let (($x5979 (= cell_7_9 5)))
 (let (($x10126 (= cell_7_9 4)))
 (let (($x2132 (= cell_7_9 3)))
 (let (($x8069 (= cell_7_9 2)))
 (let (($x6529 (= cell_7_9 1)))
 (or $x6529 $x8069 $x2132 $x10126 $x5979 $x5948 $x6664 $x5607 $x6472)))))))))))
(assert
 (let (($x1215 (= cell_8_9 1)))
 (or $x1215 (= cell_8_9 2) (= cell_8_9 3) (= cell_8_9 4) (= cell_8_9 5) (= cell_8_9 6) (= cell_8_9 7) (= cell_8_9 8) (= cell_8_9 9))))
(assert
 (let (($x2550 (= cell_9_9 2)))
 (let (($x1411 (= cell_9_9 1)))
 (or $x1411 $x2550 (= cell_9_9 3) (= cell_9_9 4) (= cell_9_9 5) (= cell_9_9 6) (= cell_9_9 7) (= cell_9_9 8) (= cell_9_9 9)))))
(assert
 (and (distinct cell_1_1 cell_1_2 cell_1_3 cell_1_4 cell_1_5 cell_1_6 cell_1_7 cell_1_8 cell_1_9) true))
(assert
 (and (distinct cell_2_1 cell_2_2 cell_2_3 cell_2_4 cell_2_5 cell_2_6 cell_2_7 cell_2_8 cell_2_9) true))
(assert
 (and (distinct cell_3_1 cell_3_2 cell_3_3 cell_3_4 cell_3_5 cell_3_6 cell_3_7 cell_3_8 cell_3_9) true))
(assert
 (and (distinct cell_4_1 cell_4_2 cell_4_3 cell_4_4 cell_4_5 cell_4_6 cell_4_7 cell_4_8 cell_4_9) true))
(assert
 (and (distinct cell_5_1 cell_5_2 cell_5_3 cell_5_4 cell_5_5 cell_5_6 cell_5_7 cell_5_8 cell_5_9) true))
(assert
 (and (distinct cell_6_1 cell_6_2 cell_6_3 cell_6_4 cell_6_5 cell_6_6 cell_6_7 cell_6_8 cell_6_9) true))
(assert
 (and (distinct cell_7_1 cell_7_2 cell_7_3 cell_7_4 cell_7_5 cell_7_6 cell_7_7 cell_7_8 cell_7_9) true))
(assert
 (and (distinct cell_8_1 cell_8_2 cell_8_3 cell_8_4 cell_8_5 cell_8_6 cell_8_7 cell_8_8 cell_8_9) true))
(assert
 (and (distinct cell_9_1 cell_9_2 cell_9_3 cell_9_4 cell_9_5 cell_9_6 cell_9_7 cell_9_8 cell_9_9) true))
(assert
 (and (distinct cell_1_1 cell_2_1 cell_3_1 cell_4_1 cell_5_1 cell_6_1 cell_7_1 cell_8_1 cell_9_1) true))
(assert
 (and (distinct cell_1_2 cell_2_2 cell_3_2 cell_4_2 cell_5_2 cell_6_2 cell_7_2 cell_8_2 cell_9_2) true))
(assert
 (and (distinct cell_1_3 cell_2_3 cell_3_3 cell_4_3 cell_5_3 cell_6_3 cell_7_3 cell_8_3 cell_9_3) true))
(assert
 (and (distinct cell_1_4 cell_2_4 cell_3_4 cell_4_4 cell_5_4 cell_6_4 cell_7_4 cell_8_4 cell_9_4) true))
(assert
 (and (distinct cell_1_5 cell_2_5 cell_3_5 cell_4_5 cell_5_5 cell_6_5 cell_7_5 cell_8_5 cell_9_5) true))
(assert
 (and (distinct cell_1_6 cell_2_6 cell_3_6 cell_4_6 cell_5_6 cell_6_6 cell_7_6 cell_8_6 cell_9_6) true))
(assert
 (and (distinct cell_1_7 cell_2_7 cell_3_7 cell_4_7 cell_5_7 cell_6_7 cell_7_7 cell_8_7 cell_9_7) true))
(assert
 (and (distinct cell_1_8 cell_2_8 cell_3_8 cell_4_8 cell_5_8 cell_6_8 cell_7_8 cell_8_8 cell_9_8) true))
(assert
 (and (distinct cell_1_9 cell_2_9 cell_3_9 cell_4_9 cell_5_9 cell_6_9 cell_7_9 cell_8_9 cell_9_9) true))
(assert
 (and (distinct cell_1_1 cell_1_2 cell_1_3 cell_2_1 cell_2_2 cell_2_3 cell_3_1 cell_3_2 cell_3_3) true))
(assert
 (and (distinct cell_1_4 cell_1_5 cell_1_6 cell_2_4 cell_2_5 cell_2_6 cell_3_4 cell_3_5 cell_3_6) true))
(assert
 (and (distinct cell_1_7 cell_1_8 cell_1_9 cell_2_7 cell_2_8 cell_2_9 cell_3_7 cell_3_8 cell_3_9) true))
(assert
 (and (distinct cell_4_1 cell_4_2 cell_4_3 cell_5_1 cell_5_2 cell_5_3 cell_6_1 cell_6_2 cell_6_3) true))
(assert
 (and (distinct cell_4_4 cell_4_5 cell_4_6 cell_5_4 cell_5_5 cell_5_6 cell_6_4 cell_6_5 cell_6_6) true))
(assert
 (and (distinct cell_4_7 cell_4_8 cell_4_9 cell_5_7 cell_5_8 cell_5_9 cell_6_7 cell_6_8 cell_6_9) true))
(assert
 (and (distinct cell_7_1 cell_7_2 cell_7_3 cell_8_1 cell_8_2 cell_8_3 cell_9_1 cell_9_2 cell_9_3) true))
(assert
 (and (distinct cell_7_4 cell_7_5 cell_7_6 cell_8_4 cell_8_5 cell_8_6 cell_9_4 cell_9_5 cell_9_6) true))
(assert
 (and (distinct cell_7_7 cell_7_8 cell_7_9 cell_8_7 cell_8_8 cell_8_9 cell_9_7 cell_9_8 cell_9_9) true))
(assert
 (let (($x440 (and (distinct cell_5_9 cell_6_8 cell_7_7 cell_8_6) true)))
 (let (($x2220 (and (distinct cell_2_9 cell_3_8 cell_4_7 cell_5_6 cell_6_5 cell_7_4 cell_8_3 cell_9_2) true)))
 (let (($x427 (and (distinct cell_1_8 cell_2_7 cell_3_6 cell_4_5 cell_5_4 cell_6_3 cell_7_2 cell_8_1) true)))
 (let (($x6238 (and (distinct cell_1_5 cell_2_4 cell_3_3 cell_4_2) true)))
 (let (($x8739 (and (distinct cell_5_1 cell_6_2 cell_7_3 cell_8_4) true)))
 (let (($x6986 (and (distinct cell_2_1 cell_3_2 cell_4_3 cell_5_4 cell_6_5 cell_7_6 cell_8_7 cell_9_8) true)))
 (let (($x4953 (and (distinct cell_1_2 cell_2_3 cell_3_4 cell_4_5 cell_5_6 cell_6_7 cell_7_8 cell_8_9) true)))
 (let (($x2525 (and (distinct cell_1_5 cell_2_6 cell_3_7 cell_4_8) true)))
 (and $x2525 $x4953 $x6986 $x8739 $x6238 $x427 $x2220 $x440))))))))))
(assert
 (= cell_2_9 3))
(check-sat)
